
Gurobi 11.0.3 (linux64) logging started Sun Aug 24 14:35:49 2025

Set parameter LogFile to value "/home/yihong/Coding/OR_SUC/SUC_ALSO_results_bigM100000_thread4/case24_ieee_rts_theta0.1_epsilon0.2_gurobi_seed120000_num_gen10_N_WDR50_load_scaling_factor2_ori_T2quadra_cost.txt"
Set parameter TimeLimit to value 3600
Gurobi Optimizer version 11.0.3 build v11.0.3rc0 (linux64 - "Ubuntu 20.04.6 LTS")

CPU model: AMD EPYC 7532 32-Core Processor, instruction set [SSE2|AVX|AVX2]
Thread count: 64 physical cores, 128 logical processors, using up to 4 threads

Academic license 2399124 - for non-commercial use only - registered to yi___@ed.ac.uk
Optimize a model with 8078 rows, 371 columns and 166142 nonzeros
Model fingerprint: 0x5bd4b27f
Model has 20 quadratic constraints
Variable types: 351 continuous, 20 integer (20 binary)
Coefficient statistics:
  Matrix range     [4e-04, 5e+04]
  QMatrix range    [2e-03, 7e-03]
  QLMatrix range   [1e+00, 4e+02]
  Objective range  [1e+00, 1e+00]
  Bounds range     [1e+00, 1e+00]
  RHS range        [9e-02, 1e+04]
Presolve removed 2023 rows and 182 columns
Presolve time: 0.15s
Presolved: 6055 rows, 189 columns, 124457 nonzeros
Presolved model has 20 quadratic constraint(s)
Variable types: 169 continuous, 20 integer (20 binary)

Root relaxation: objective 3.596544e+03, 128 iterations, 0.06 seconds (0.06 work units)

    Nodes    |    Current Node    |     Objective Bounds      |     Work
 Expl Unexpl |  Obj  Depth IntInf | Incumbent    BestBd   Gap | It/Node Time

     0     0 3596.54446    0    6          - 3596.54446      -     -    0s
     0     0 10815.6875    0   12          - 10815.6875      -     -    0s
     0     0 11136.7087    0   10          - 11136.7087      -     -    0s
     0     0 60631.8910    0   12          - 60631.8910      -     -    0s
     0     0 65358.3131    0   12          - 65358.3131      -     -    0s
H    0     0                    80025.307515 73414.1082  8.26%     -    0s
     0     0 73414.1082    0    6 80025.3075 73414.1082  8.26%     -    0s
H    0     0                    73744.550526 73652.6752  0.12%     -    1s
H    0     0                    73744.550460 73652.6752  0.12%     -    1s
     0     0          -    0      73744.5505 73682.2418  0.08%     -    1s

Cutting planes:
  Implied bound: 6
  MIR: 8
  Flow cover: 18
  RLT: 1

Explored 1 nodes (341 simplex iterations) in 1.85 seconds (1.36 work units)
Thread count was 4 (of 128 available processors)

Solution count 2: 73744.6 80025.3 

Optimal solution found (tolerance 1.00e-03)
Best objective 7.374455045991e+04, best bound 7.368224180203e+04, gap 0.0845%
